data/input/emptyest.txt
11 16
1.0 1.0 0.0 0.0 0.0 0.0 0.0 0.0 0.0 0.0 0.0 
0.0 0.0 0.0 0.0 0.0 0.0 0.0 0.0 1.0 0.0 0.0 2.34 0
1.0 1.101 0.0 -1.101 0.0 0.0 0.0 0.0 0.0 1.0 0.0 -1.234 0
0.0 0.0 1.0 0.0 0.0 0.0 0.0 0.0 0.0 0.0 0.0 0.0 1
0.0 0.0 -1.101 0.0 0.0 0.0 0.0 0.0 0.0 0.0 1.0 0.0 0
0.0 0.0 0.0 1.0 -1.0 -1.0 -1.0 -1.0 0.0 0.0 0.0 5.67 0
0.0 0.0 0.0 0.0 -1.0 -1.0 -2.0 -3.0 0.0 0.0 0.0 -2.0 1
0.0 0.0 1.0 0.0 0.0 0.0 0.0 0.0 0.0 0.0 0.0 1.51985 -1
0.0 0.0 0.0 1.0 0.0 0.0 0.0 0.0 0.0 0.0 0.0 8.07907 1
0.0 0.0 0.0 1.0 0.0 0.0 0.0 0.0 0.0 0.0 0.0 8.07907 -1
0.0 0.0 0.0 0.0 1.0 0.0 0.0 0.0 0.0 0.0 0.0 8.07907 1
0.0 0.0 0.0 0.0 1.0 0.0 0.0 0.0 0.0 0.0 0.0 8.07907 -1
0.0 0.0 0.0 0.0 0.0 1.0 0.0 0.0 0.0 0.0 0.0 8.07907 -1
0.0 0.0 0.0 0.0 0.0 0.0 0.0 1.0 0.0 0.0 0.0 1.57957 1
0.0 0.0 0.0 0.0 0.0 0.0 0.0 0.0 1.0 0.0 0.0 2.34 -1
0.0 0.0 0.0 0.0 0.0 0.0 0.0 0.0 0.0 1.0 0.0 34.0 -1
0.0 0.0 0.0 0.0 0.0 0.0 0.0 0.0 0.0 0.0 1.0 2.34 -1
0 1 1 0 0 1 0 0 1 1 1 
