data/solution-dual/emptyest.out
1
0.0
0.0 0.0 0.0 5.67 0.0 0.0 0.0 0.0 2.34 5.00867 0.0 